phonons on a grid 
 &inputph 
  nq1 = 2, nq2 = 2, nq3 = 2, 
  fildyn = 'hBN.dyn', 
  tr2_ph = 1e-12, 
  prefix = 'hBN', 
  trans = .true., 
  fildvscf = 'dvscf', 
  ldisp = .true., 
  reduce_io = .true.
/ 
