&CONTROL
  prefix = 'hBN'
  pseudo_dir = '../'
  calculation = 'scf'
  outdir = '.'
  verbosity = 'high'
  nstep = 20000
/
&SYSTEM
  ecutwfc = 40
  ibrav = 0
  nat = 4
  ntyp = 2
  occupations = 'fixed'
  force_symmorphic = .true.
/
&ELECTRONS
  conv_thr =   1.0000000000d-12
  electron_maxstep = 1000
/&end
&IONS
/
&cell
  cell_dynamics = "bfgs"
/
ATOMIC_SPECIES
B       10.811   B.upf
N       14.0067  N.upf
CELL_PARAMETERS (angstrom)
   2.489045057  -0.000000000   0.000000000
  -1.244522529   2.155576251  -0.000000000
   0.000000000  -0.000000000   6.482867531
ATOMIC_POSITIONS (crystal)
B                0.6666666667        0.3333333333        0.5000000000
B                0.3333333333        0.6666666667        0.0000000000
N                0.6666666667        0.3333333333       -0.0000000000
N                0.3333333333        0.6666666667        0.5000000000
K_POINTS automatic
4 4 4 0 0 0
