phonons on a grid 
 &inputph 
  nq1 = 2, 
  nq2 = 2, 
  nq3 = 1, 
  fildyn = 'mos2.dyn', 
  tr2_ph = 1e-14, 
  prefix = 'mos2', 
  trans = .true., 
  electron_phonon = 'dvscf', 
  fildvscf = 'dvscf', 
  ldisp = .true., 
  reduce_io = .true.
/ 
